objective value:                                 6450
t_x90                                            3670 	(obj:0)
t_x155                                           6144 	(obj:0)
t_x55                                            2374 	(obj:0)
t_x160                                           6276 	(obj:0)
t_x95                                            3866 	(obj:0)
t_x10                                             474 	(obj:0)
t_x100                                           4006 	(obj:0)
t_x60                                            2744 	(obj:0)
t_x35                                            1794 	(obj:0)
t_x105                                           4146 	(obj:0)
t_x20                                            1166 	(obj:0)
t_x110                                           4320 	(obj:0)
t_x65                                            2862 	(obj:0)
t_x1                                             6450 	(obj:1)
t_x115                                           4438 	(obj:0)
t_x40                                            1926 	(obj:0)
t_x70                                            2980 	(obj:0)
t_x120                                           4620 	(obj:0)
t_x4                                              118 	(obj:0)
t_x25                                            1298 	(obj:0)
t_x125                                           4780 	(obj:0)
t_x75                                            3098 	(obj:0)
t_x130                                           5158 	(obj:0)
t_x45                                            2010 	(obj:0)
t_x135                                           5494 	(obj:0)
t_x80                                            3216 	(obj:0)
t_x15                                             606 	(obj:0)
t_x140                                           5620 	(obj:0)
t_x85                                            3376 	(obj:0)
t_x145                                           5830 	(obj:0)
t_x50                                            2192 	(obj:0)
t_x30                                            1612 	(obj:0)
t_x150                                           6012 	(obj:0)
